4 
5  09 22 46 
6  02 17 31 46 
7  03 18 33 48 
8  03 18 33 48 
9  03 18 33 48 
10  05 20 35 50 
11  05 20 35 50 
12  05 20 35 50 
13  05 21 36 51 
14  06 21 36 51 
15  05 19 34 49 
16  04 19 34 49 
17  04 19 34 49 
18  04 19 34 49 
19  05 19 34 49 
20  04 19 34 49 
21  04 19 34 
22  04 
23  
0 
